NAME : n80w180.001.678.tour
COMMENT : Length = 678
COMMENT : Found by LKH [Keld Helsgaun] Tue Nov  7 19:40:26 2017
TYPE : TOUR
DIMENSION : 81
TOUR_SECTION
1
53
67
22
9
78
12
73
32
33
19
7
43
14
28
59
44
5
4
61
37
56
10
29
76
66
42
77
39
47
18
20
8
24
13
60
38
80
21
58
45
35
41
23
49
27
75
6
2
25
51
70
55
72
79
68
26
64
17
31
71
15
36
30
11
63
65
3
62
48
34
16
50
74
46
40
69
52
81
54
57
-1
EOF
